
Log started (V11.0.0) Sat May 17 19:56:20 2008

Tried aggregator 1 time.
Reduced MIP has 150 rows, 5001 columns, and 10050 nonzeros.
Presolve time =    0.05 sec.
Clique table members: 100.
MIP emphasis: balance optimality and feasibility.
MIP search method: dynamic search.
Parallel mode: none, using 1 thread.
Root relaxation solution time =    0.25 sec.

        Nodes                                         Cuts/
   Node  Left     Objective  IInf  Best Integer     Best Node    ItCnt     Gap

*     0+    0                       104826.0000     2003.9383      559   98.09%
*     0+    0                         2012.0000     2003.9383      559    0.40%
      0     0     2008.0449    64     2012.0000      Fract: 5      580    0.20%
      0     0     2008.0449    78     2012.0000       Cuts: 2      608    0.20%
      0     0     2008.0449    79     2012.0000       Cuts: 3      610    0.20%
      0     2     2009.0000    74     2012.0000     2008.0449      610    0.20%
    100    12        cutoff           2012.0000     2009.0000     6610    0.15%
    200    14        cutoff           2012.0000     2009.0000    14973    0.15%
    300    32        cutoff           2012.0000     2009.0000    22754    0.15%
    400    52        cutoff           2012.0000     2009.0000    33125    0.15%
    500    58        cutoff           2012.0000     2009.0000    44665    0.15%
*   531+   42                         2011.0000     2009.0000    48094    0.10%
    600    21     2009.0000    22     2011.0000     2009.0000    53803    0.10%
    700    37     2009.0000    11     2011.0000     2009.0000    64049    0.10%
    800    45     2009.0000    21     2011.0000     2009.0000    75038    0.10%
*   891+   73                         2010.0000     2009.0000    77449    0.05%
    900    78     2009.0000    57     2010.0000     2009.0000    77892    0.05%
   1000   104    infeasible           2010.0000     2009.0000    81358    0.05%
Elapsed time =  23.14 sec. (tree size =  0.40 MB, solutions = 4)
   1100   110    infeasible           2010.0000     2009.0000    84789    0.05%
   1200   106     2009.0000    70     2010.0000     2009.0000   100973    0.05%
   1300   124     2009.0000    12     2010.0000     2009.0000   148117    0.05%
   1400   124    infeasible           2010.0000     2009.0000   199959    0.05%
   1500    24    infeasible           2010.0000     2009.0000   297417    0.05%

Clique cuts applied:  6
Cover cuts applied:  22
Gomory fractional cuts applied:  7

Solution pool: 4 solutions saved.

MIP - Integer optimal solution:  Objective = 2.0100000000e+003
Solution time =   59.36 sec.  Iterations = 321983  Nodes = 1525


Incumbent solution
Variable Name           Solution Value
Cmax                       2010.000000
X_1_14                        1.000000
X_2_7                         1.000000
X_3_45                        1.000000
X_4_29                        1.000000
X_5_49                        1.000000
X_6_32                        1.000000
X_7_28                        1.000000
X_8_47                        1.000000
X_9_7                         1.000000
X_10_26                       1.000000
X_11_12                       1.000000
X_12_43                       1.000000
X_13_21                       1.000000
X_14_43                       1.000000
X_15_13                       1.000000
X_16_24                       1.000000
X_17_33                       1.000000
X_18_25                       1.000000
X_19_19                       1.000000
X_20_19                       1.000000
X_21_15                       1.000000
X_22_38                       1.000000
X_23_2                        1.000000
X_24_10                       1.000000
X_25_42                       1.000000
X_26_41                       1.000000
X_27_25                       1.000000
X_28_44                       1.000000
X_29_13                       1.000000
X_30_26                       1.000000
X_31_38                       1.000000
X_32_37                       1.000000
X_33_1                        1.000000
X_34_17                       1.000000
X_35_23                       1.000000
X_36_10                       1.000000
X_37_30                       1.000000
X_38_9                        1.000000
X_39_22                       1.000000
X_40_6                        1.000000
X_41_44                       1.000000
X_42_48                       1.000000
X_43_23                       1.000000
X_44_24                       1.000000
X_45_4                        1.000000
X_46_28                       1.000000
X_47_22                       1.000000
X_48_34                       1.000000
X_49_11                       1.000000
X_50_39                       1.000000
X_51_35                       1.000000
X_52_3                        1.000000
X_53_47                       1.000000
X_54_50                       1.000000
X_55_46                       1.000000
X_56_27                       1.000000
X_57_16                       1.000000
X_58_48                       1.000000
X_59_20                       1.000000
X_60_37                       1.000000
X_61_31                       1.000000
X_62_5                        1.000000
X_63_9                        1.000000
X_64_14                       1.000000
X_65_41                       1.000000
X_66_4                        1.000000
X_67_30                       1.000000
X_68_40                       1.000000
X_69_33                       1.000000
X_70_18                       1.000000
X_71_21                       1.000000
X_72_15                       1.000000
X_73_3                        1.000000
X_74_12                       1.000000
X_75_42                       1.000000
X_76_40                       1.000000
X_77_5                        1.000000
X_78_6                        1.000000
X_79_34                       1.000000
X_80_17                       1.000000
X_81_8                        1.000000
X_82_18                       1.000000
X_83_45                       1.000000
X_84_29                       1.000000
X_85_35                       1.000000
X_86_2                        1.000000
X_87_50                       1.000000
X_88_31                       1.000000
X_89_11                       1.000000
X_90_27                       1.000000
X_91_39                       1.000000
X_92_8                        1.000000
X_93_36                       1.000000
X_94_20                       1.000000
X_95_46                       1.000000
X_96_49                       1.000000
X_97_1                        1.000000
X_98_16                       1.000000
X_99_36                       1.000000
X_100_32                      1.000000
All other variables in the range 1-5001 are 0.
